<number of tasks>
21

<cycle time>
14

<task times>
1 4
2 3
3 9
4 5
5 9
6 4
7 8
8 7
9 5
10 1
11 3
12 1
13 5
14 3
15 5
16 3
17 13
18 5
19 2
20 3
21 7

<precedence relations>
1,2
1,3
2,21
3,4
4,5
4,21
5,6
5,7
6,8
7,8
7,14
8,9
9,10
9,11
9,12
9,13
10,15
11,15
12,15
13,17
13,18
14,19
15,16
15,18
16,17
17,20
18,19

<setup times forward>
1,2:1
2,3:1
2,4:3
2,5:3
2,6:1
2,7:1
2,8:2
2,9:2
2,10:2
2,11:2
2,12:2
2,13:2
2,15:2
2,17:1
3,2:1
3,4:2
4,2:3
4,21:3
5,2:3
5,6:2
5,7:2
5,21:3
6,2:1
6,8:1
6,14:1
6,21:1
7,2:1
7,8:1
7,14:1
7,21:1
8,2:2
8,14:2
8,21:2
9,2:2
9,14:2
9,21:2
10,2:2
10,14:2
10,21:2
11,2:2
11,14:2
11,21:2
12,2:2
12,14:2
12,21:2
13,2:2
13,14:2
13,16:2
13,17:1
13,18:2
13,21:2
14,6:1
14,8:2
14,9:2
14,10:2
14,11:2
14,12:2
14,13:2
14,15:2
14,17:1
15,2:2
15,14:2
15,16:2
15,18:2
15,21:2
16,13:2
16,17:1
17,2:1
17,14:1
17,18:1
17,19:1
17,20:1
17,21:1
18,17:1
19,17:1
21,5:3
21,6:1
21,7:1
21,8:2
21,9:2
21,10:2
21,11:2
21,12:2
21,13:2
21,15:2
21,17:1

<setup times backward>
3,2:1
4,1:2
4,2:3
4,3:2
5,1:2
5,2:3
5,3:2
5,21:3
6,2:1
6,14:1
6,21:1
7,2:1
7,21:1
8,1:1
8,2:2
8,3:1
8,6:1
8,7:1
8,14:2
8,21:2
9,1:1
9,2:2
9,3:1
9,6:1
9,7:1
9,14:2
9,21:2
10,1:1
10,2:2
10,3:1
10,6:1
10,7:1
10,14:2
10,21:2
11,1:1
11,2:2
11,3:1
11,6:1
11,7:1
11,14:2
11,21:2
12,1:1
12,2:2
12,3:1
12,6:1
12,7:1
12,14:2
12,21:2
13,1:1
13,2:2
13,3:1
13,6:1
13,7:1
13,14:2
13,16:2
13,21:2
15,1:1
15,2:2
15,3:1
15,6:1
15,7:1
15,14:2
15,21:2
17,2:1
17,14:1
17,16:1
17,18:1
17,19:1
17,21:1

<end>

<optimal SALBP-1 value>
8


<rand seed>
467321153

<Lower Bounds>
Lm1=8
Lms1=8
Lm2=5
Lm3=6
Lm4=8
Best=8

<Optimal Stations (Iterations: 10)>
10
